c Random generated cnf formula, satisfiable: false
p cnf 10 50
-2 -6 7 0
-9 6 -3 0
-7 4 -9 0
2 8 10 0
-1 9 5 0
-6 1 -2 0
6 -7 -5 0
3 2 6 0
8 5 3 0
-2 -7 10 0
-10 -8 5 0
-5 -3 -9 0
6 -5 -7 0
3 -4 -10 0
2 -7 5 0
-1 3 -8 0
8 5 -2 0
-4 -9 1 0
3 6 1 0
1 8 -10 0
-1 2 9 0
5 6 -8 0
2 1 3 0
-4 1 3 0
1 -2 6 0
9 6 -1 0
6 -2 10 0
-7 5 -4 0
3 4 -2 0
9 -7 2 0
4 -8 -1 0
-9 7 5 0
2 -8 -4 0
1 -5 -3 0
8 -2 -4 0
-3 -6 9 0
1 -2 -4 0
3 -10 -9 0
-6 3 2 0
9 -5 -1 0
-2 7 10 0
-7 2 1 0
-9 -4 6 0
-5 1 -2 0
-5 -10 -1 0
-6 -4 5 0
-5 -3 1 0
-4 8 5 0
-7 -10 9 0
5 -2 4 0
